x
1
2
1
2
1
2
1
2
1
2
4
3
4
3
5
3
5
7
3
7
3
7
6
7
6
7
6
7
6
7
6
8
7
8
7
8
9
8
9
8
9
8
9
8
9
8
9
8
9
8
9
8
9
12
11
12
11
16
12
16
12
16
12
16
12
16
12
19
12
19
12
19
12
19
16
17
19
17
18
19
18
19
18
19
18
19
13
15
7
15
7
15
13
15
13
15
13
15
13
15
13
15
13
15
13
15
13
15
20
22
20
22
20
22
20
22
20
22
20
23
20
23
20
23
20
23
25
23
25
23
25
23
25
23
25
23
25
26
25
26
25
26
25
26
25
26
22
24
22
24
22
24
22
24
28
22
24
28
22
24
28
24
28
24
28
27
28
27
28
27
28
27
31
34
31
34
31
34
31
34
31
36
31
36
31
36
31
36
31
36
31
36
34
33
34
33
34
38
37
38
37
38
37
38
37
38
33
34
38
33
38
33
38
33
37
38
35
38
35
32
30
29
30
29
30
29
32
30
29
32
30
29
32
30
32
30
32
30
29
21
29
21
29
21
29
21
29
21
29
21
14
10
14
10
14
10
14
10
1
10
1
14
10
1
14
10
1
14
10
1
14
10
